100
128
44
42
48
52
8
9
6
27
48
62
41
61
19
25
45
8
23
57
52
45
57
11
20
61
11
58
59
60
14
21
34
44
34
36
31
22
13
10
20
53
22
33
28
11
20
52
10
34
2
2
51
11
44
33
3
37
1
3
1
26
11
24
22
19
15
2
36
8
39
17
15
62
33
13
18
57
15
25
46
1
29
42
4
17
26
2
22
13
14
42
17
33
40
1
42
46
2
63
34
31